; benchmark generated from python API
(set-info :status unknown)
(declare-fun C () Real)
(declare-fun S_1 () Real)
(declare-fun S_4 () Real)
(declare-fun A_0 () Real)
(declare-fun L_0 () Real)
(declare-fun S_3 () Real)
(declare-fun S_0 () Real)
(declare-fun A_4 () Real)
(declare-fun L_1 () Real)
(declare-fun S_2 () Real)
(declare-fun L0 () Real)
(declare-fun A_3 () Real)
(declare-fun A_2 () Real)
(declare-fun A_1 () Real)
(assert
 (let (($x37 (>= L0 0.0)))
 (let (($x768 (>= C 5.0)))
 (let (($x4937 (<= (+ (* 3.0 C) (* (- 1.0) S_4) S_0) 0.0)))
 (let (($x921 (<= (+ (* (- 1.0) L_1) A_3 (* (- 1.0) S_4)) 0.0)))
 (let ((?x519 (* (- 1.0) A_1)))
 (let ((?x507 (* (- 1.0) A_4)))
 (let ((?x262 (* (- 1.0) C)))
 (let (($x1003 (<= 0.0 (+ (* (- 1.0) L_1) L_0))))
 (let (($x5845 (<= (+ ?x262 A_2 ?x519) 0.0)))
 (let (($x5304 (<= (+ (* 2.0 C) (* (- 1.0) S_4) S_1) 0.0)))
 (let (($x117 (>= S_3 S_2)))
 (let (($x120 (>= S_4 S_3)))
 (let (($x36 (>= L_0 L0)))
 (let (($x111 (>= S_1 S_0)))
 (let (($x114 (>= S_2 S_1)))
 (let (($x123 (>= A_2 A_1)))
 (let (($x124 (>= A_3 A_2)))
 (let (($x125 (>= A_4 A_3)))
 (and (<= (+ A_0 (* (- 1.0) L_0)) S_3) (not (<= (+ A_1 (* (- 1.0) L_1)) S_3)) $x125 $x124 $x123 $x114 $x111 $x36 $x120 $x117 (or (= L_1 L_0) (not $x1003)) (<= (+ L_1 ?x262 (* (- 1.0) A_3) S_4) 0.0) (or $x5845 (<= (+ C (* (- 1.0) S_4) S_2) 0.0)) (or $x921 (<= (+ C (* (- 1.0) S_4) S_2) 0.0)) (<= (+ S_4 (* (- 3.0) C) (* (- 1.0) S_2)) 0.0) (or $x5304 $x5845) (or $x4937 $x5845) (or $x1003 (<= (+ ?x262 L_1 ?x507 ?x519 A_2 S_4) 0.0)) (or $x921 $x5304) (or $x921 $x4937) $x768 $x37 (<= (+ (* (- 2.0) C) L_0 (* (- 1.0) A_0) S_2) 0.0) (<= (+ (* (- 3.0) C) (* (- 1.0) S_0) S_2) 0.0) (<= (+ (* (- 2.0) C) (* (- 1.0) S_1) S_2) 0.0) (<= (+ S_4 (* (- 1.0) S_0) (* (- 5.0) C)) 0.0) (<= (+ (* (- 1.0) S_3) S_4 (* (- 2.0) C)) 0.0) (<= (+ L_0 ?x262 (* (- 1.0) A_0) S_1) 0.0) (<= (+ C (* (- 1.0) S_3) S_1) 0.0) (<= (+ L_0 (* (- 1.0) A_0) S_0) 0.0) (<= (+ C S_0 (* (- 1.0) S_2)) 0.0) (<= (+ L_0 (* (- 1.0) A_0) S_3 (* (- 3.0) C)) 0.0) (<= (+ S_3 (* (- 2.0) C) (* (- 1.0) S_2)) 0.0) (<= (+ S_3 (* (- 1.0) S_0) (* (- 4.0) C)) 0.0) (<= (+ (* (- 2.0) C) S_1 (* (- 1.0) S_0)) 0.0) (<= (+ L_1 ?x507 S_4) 0.0) (<= (+ (* 2.0 C) (* (- 1.0) S_3) S_0) 0.0) (<= (+ S_3 (* (- 1.0) S_1) (* (- 3.0) C)) 0.0) (<= (+ L_0 (* (- 1.0) A_0) S_4 (* (- 4.0) C)) 0.0) (<= (+ S_4 (* (- 1.0) S_1) (* (- 4.0) C)) 0.0)))))))))))))))))))))
(check-sat)
